100
32
3
12
4
17
1
16
8
27
10
11
18
18
9
6
13
2
9
21
1
2
1
1
2
4
1
2
1
3
1
1
3
1
1
16
1
1
3
1
17
17
1
2
1
1
3
4
1
1
1
1
3
2
4
2
1
17
3
1
3
1
2
20
1
3
1
3
2
1
1
3
22
1
2
5
1
3
1
2
1
17
3
3
1
2
2
19
1
3
1
2
2
2
1
17
7
3
1
3
1
2